100	5
25	200
10
30
10
10
10
20
20
20
10
10
10
20
30
10
40
40
20
20
10
10
20
20
10
10
40
10
10
20
10
10
20
30
40
20
10
10
20
30
20
10
10
20
10
10
10
30
10
10
10
10
10
10
20
40
10
30
40
30
10
20
10
20
50
10
10
10
10
10
10
30
20
10
10
50
20
10
10
20
10
10
30
20
10
20
30
10
20
30
10
10
10
20
40
10
30
10
30
20
10
20
40	50	0	1236	0	0
45	68	0	1127	90	3
45	70	0	1125	90	3
42	66	0	1129	90	3
42	68	727	782	90	3
42	65	0	1130	90	2
40	69	0	1127	90	1
40	66	0	1130	90	3
38	68	255	324	90	2
38	70	534	605	90	1
35	66	0	1129	90	1
35	69	448	505	90	1
25	85	0	1107	90	1
22	75	30	92	90	1
22	85	0	1106	90	2
20	80	384	429	90	2
20	85	0	1105	90	3
18	75	0	1112	90	2
15	75	0	1110	90	1
15	80	0	1106	90	2
30	50	0	1136	90	2
30	52	0	1135	90	1
28	52	0	1133	90	2
28	55	732	777	90	3
25	50	0	1131	90	3
25	52	169	224	90	3
25	55	0	1130	90	1
23	52	0	1128	90	2
23	55	0	1128	90	1
20	50	0	1126	90	1
20	55	0	1125	90	2
10	35	0	1112	90	2
10	40	0	1114	90	3
8	40	0	1112	90	3
8	45	0	1113	90	1
5	35	0	1107	90	2
5	45	0	1110	90	1
2	40	0	1106	90	2
0	40	479	522	90	1
0	45	0	1105	90	1
35	30	0	1125	90	3
35	32	0	1127	90	1
33	32	0	1126	90	2
33	35	0	1129	90	2
32	30	359	412	90	3
30	30	0	1123	90	2
30	32	0	1125	90	3
30	35	0	1127	90	2
28	30	0	1122	90	1
28	35	0	1126	90	3
26	32	0	1123	90	1
25	30	0	1121	90	1
25	35	0	1124	90	2
44	5	286	347	90	1
42	10	0	1105	90	1
42	15	95	158	90	1
40	5	0	1101	90	2
40	15	0	1111	90	2
38	5	471	534	90	1
38	15	0	1110	90	1
35	5	0	1100	90	3
50	30	0	1123	90	2
50	35	262	317	90	2
50	40	0	1131	90	2
48	30	0	1124	90	1
48	40	0	1133	90	1
47	35	0	1129	90	3
47	40	12	77	90	1
45	30	0	1125	90	2
45	35	916	969	90	3
95	30	0	1087	90	3
95	35	0	1088	90	2
53	30	0	1122	90	2
92	30	0	1090	90	2
53	35	353	412	90	2
45	65	0	1130	90	2
90	35	203	260	90	2
88	30	574	643	90	1
88	35	0	1095	90	3
87	30	668	731	90	2
85	25	0	1094	90	2
85	35	0	1098	90	3
75	55	0	1110	90	1
72	55	0	1113	90	3
70	58	458	523	90	1
68	60	0	1116	90	3
66	55	0	1119	90	2
65	55	85	144	90	2
65	60	0	1119	90	1
63	58	0	1121	90	1
60	55	0	1125	90	3
60	60	0	1123	90	3
67	85	368	441	90	1
65	85	0	1102	90	1
65	82	0	1105	90	1
62	80	0	1108	90	2
60	80	0	1109	90	1
60	85	0	1105	90	3
58	75	0	1115	90	2
55	80	743	820	90	3
55	85	647	726	90	2
52	37	0	1236	45	4
29	80	0	1236	45	4
30	52	0	1236	45	4
87	33	0	1236	45	4
45	66	0	1236	45	4
0	0	0	0	1	
0	0	0	0	1	
0	0	0	0	1	
0	0	0	0	1	
0	0	0	0	1	
0	0	0	0	0	
0	0	0	0	1	
0	0	0	0	1	
0	0	0	0	0	
0	0	0	0	0	
0	0	0	0	0	
0	0	0	0	0	
0	0	0	0	0	
0	1	0	0	0	
0	1	0	0	0	
0	1	0	0	0	
0	1	0	0	0	
0	0	0	0	0	
0	1	0	0	0	
0	0	1	0	0	
0	0	0	0	0	
0	0	1	0	0	
0	0	1	0	0	
0	0	1	0	0	
0	0	1	0	0	
0	0	0	0	0	
0	0	1	0	0	
0	0	0	0	0	
0	0	0	0	0	
0	0	1	0	0	
0	0	1	0	0	
0	0	1	0	0	
0	0	1	0	0	
0	0	0	0	0	
0	0	1	0	0	
0	0	0	0	0	
0	0	1	0	0	
0	0	0	0	0	
0	0	0	0	0	
1	0	0	0	0	
0	0	0	0	0	
1	0	0	0	0	
0	0	1	0	0	
1	0	0	0	0	
0	0	1	0	0	
0	0	1	0	0	
0	0	1	0	0	
0	0	0	0	0	
0	0	1	0	0	
0	0	0	0	0	
0	0	0	0	0	
0	0	1	0	0	
0	0	0	0	0	
0	0	0	0	0	
0	0	0	0	0	
1	0	0	0	0	
1	0	0	0	0	
0	0	0	0	0	
0	0	0	0	0	
1	0	0	0	0	
1	0	0	0	0	
1	0	0	0	0	
1	0	0	0	0	
0	0	0	0	0	
0	0	0	0	0	
1	0	0	0	0	
0	0	0	0	0	
1	0	0	0	0	
1	0	0	0	0	
0	0	0	1	0	
0	0	0	1	0	
1	0	0	0	0	
0	0	0	1	0	
1	0	0	0	0	
0	0	0	0	1	
0	0	0	1	0	
0	0	0	0	0	
0	0	0	1	0	
0	0	0	1	0	
0	0	0	1	0	
0	0	0	1	0	
0	0	0	0	0	
0	0	0	1	0	
0	0	0	0	0	
0	0	0	0	1	
1	0	0	0	0	
1	0	0	0	0	
0	0	0	0	0	
0	0	0	0	0	
0	0	0	0	1	
0	0	0	0	1	
0	0	0	0	0	
0	0	0	0	0	
0	0	0	0	0	
0	0	0	0	1	
0	0	0	0	0	
0	0	0	0	1	
0	0	0	0	1	
0	0	0	0	1	
0	0	0	0	1	
